Sat 19 May 19:21:11 CEST 2018
CPXPARAM_TimeLimit                               45
CPXPARAM_Threads                                 1
CPXPARAM_MIP_Strategy_CallbackReducedLP          0
Tried aggregator 5 times.
MIP Presolve eliminated 4370 rows and 2745 columns.
MIP Presolve modified 1322 coefficients.
Aggregator did 2461 substitutions.
Reduced MIP has 4730 rows, 4718 columns, and 13378 nonzeros.
Reduced MIP has 4281 binaries, 9 generals, 0 SOSs, and 987 indicators.
Presolve time = 0.04 sec. (64.66 ticks)
Probing time = 0.12 sec. (104.68 ticks)
Tried aggregator 5 times.
Aggregator did 2290 substitutions.
Reduced MIP has 2440 rows, 2428 columns, and 8798 nonzeros.
Reduced MIP has 1991 binaries, 437 generals, 0 SOSs, and 987 indicators.
Presolve time = 0.02 sec. (25.03 ticks)
Probing time = 0.06 sec. (49.66 ticks)
Tried aggregator 1 time.
Reduced MIP has 2440 rows, 2428 columns, and 8798 nonzeros.
Reduced MIP has 1991 binaries, 437 generals, 0 SOSs, and 987 indicators.
Presolve time = 0.01 sec. (7.74 ticks)
Probing time = 0.00 sec. (4.47 ticks)
Clique table members: 62714.
MIP emphasis: balance optimality and feasibility.
MIP search method: dynamic search.
Parallel mode: none, using 1 thread.
Root relaxation solution time = 0.01 sec. (12.60 ticks)

        Nodes                                         Cuts/
   Node  Left     Objective  IInf  Best Integer    Best Bound    ItCnt     Gap

      0     0        0.0000  1142                      0.0000      259         
      0     0        0.0000   932                Cliques: 710      594         
      0     0        0.0000   744                Cliques: 710      781         
      0     0        0.0000   556                Cliques: 710     1016         
      0     0        0.0000   484                Cliques: 710     1255         
      0     0        0.0000   528                Cliques: 710     1750         
      0     0        0.0000    51                Impl Bds: 51     1883         
      0     0        0.0000    44                   Cuts: 453     2012         
      0     0        0.0000   247                   Cuts: 458     2499         
      0     2        0.0000   247                      0.0000     2499         
Elapsed time = 4.01 sec. (5242.35 ticks, tree = 0.01 MB, solutions = 0)
     14    16        0.0000    38                      0.0000     4108         
     20    22        0.0000    38                      0.0000     4921         
     35    37        0.0000    35                      0.0000     6105         
     38    40       15.0000    41                      0.0000     7257         
     40    42        0.0000    50                      0.0000     7767         
     42    44        0.0000    54                      0.0000     9011         
     45    47        4.0000    58                      0.0000     9997         
     53    55        0.0000    55                      0.0000    11603         
     66    68        0.0000    43                      0.0000    13628         
    157   159        0.0000    41                      0.0000    23751         
Elapsed time = 7.66 sec. (9111.95 ticks, tree = 1.01 MB, solutions = 0)
*   180+  168                           16.0000        0.0000           100.00%
*   210+  190                           15.0000        0.0000           100.00%
*   220+  193                           14.0000        0.0000           100.00%
*   272   213      integral     0       13.0000        0.0000    29996  100.00%
*   300+  187                           11.0000        0.0000           100.00%
    306   189        8.0000    38       11.0000        0.0000    32089  100.00%
*   320+  182                           10.0000        0.0000           100.00%
*   341   172      integral     0        9.0000        0.0000    33961  100.00%
*   380+  162                            8.0000        0.0000           100.00%
*   400   116      integral     0        7.0000        0.0000    38245  100.00%
*   452    68      integral     0        6.0000        0.0000    41143  100.00%
    461    59    infeasible              6.0000        1.0000    43364   83.33%

Clique cuts applied:  2035
Implied bound cuts applied:  145

Root node processing (before b&c):
  Real time             =    3.99 sec. (5221.76 ticks)
Sequential b&c:
  Real time             =    5.27 sec. (5954.13 ticks)
                          ------------
Total (root+branch&cut) =    9.26 sec. (11175.88 ticks)
   | W
 L | 0 1 2 3 4 5 6 
------------------
 0 | 3 3 . 8 8 8 . 
 1 | 3 3 . 8 8 8 5 
 2 | 2 1 . 8 8 8 5 
 3 | 7 7 7 6 6 6 . 
 4 | 7 7 7 6 6 6 4 
 5 | 7 7 7 6 6 6 4 
 6 | . . . . . . . 
 7 | . . . . . . . 
 8 | . . . . . . . 
 9 | . . . . . . . 
10 | . . . . . . . 
11 | . . . . . . . 
12 | . . . . . . . 
13 | . . . . . . . 
14 | . . . . . . . 
15 | . . . . . . . 
16 | . . . . . . . 

Boxes' corners:      (w,l)
    Box 1 is at 
        top left     (1,2)
        bottom right (1,2)

    Box 2 is at 
        top left     (0,2)
        bottom right (0,2)

    Box 3 is at 
        top left     (0,0)
        bottom right (1,1)

    Box 4 is at 
        top left     (6,4)
        bottom right (6,5)

    Box 5 is at 
        top left     (6,1)
        bottom right (6,2)

    Box 6 is at 
        top left     (3,3)
        bottom right (5,5)

    Box 7 is at 
        top left     (0,3)
        bottom right (2,5)

    Box 8 is at 
        top left     (3,0)
        bottom right (5,2)

    Roll length used: 6
In 9.29 seconds
